JulietBench/Juliet_Based_Patch_Bench/linux/CWE-189-Numeric-Errors/CVE_2016_2070_8b8a321ff72c785ed5e8b4cf6eda20b35d427390/solvertcp_cwnd_reduction_Snippet_patch1.smt2
; benchmark generated from python API
(set-info :status unknown)
(declare-fun R () (_ BitVec 32))
(declare-fun rdi () (_ BitVec 64))
(declare-fun rsi () (_ BitVec 64))
(assert
 (let (($x94 (= (_ bv0 32) R)))
 (let ((?x6 ((_ extract 31 0) rdi)))
 (let (($x28 (bvsge (_ bv0 32) ?x6)))
 (let (($x96 (and $x28 $x94)))
 (let (($x60 (bvslt (_ bv0 32) ?x6)))
 (let ((?x8 ((_ extract 31 0) rsi)))
 (let (($x69 (= (_ bv0 32) ?x8)))
 (let (($x95 (and $x69 $x60 $x94)))
 (let ((?x15 (bvmul (_ bv50 32) ?x6)))
 (let ((?x91 (bvadd (bvadd (_ bv1399 32) ?x8) ?x15)))
 (let (($x92 (= R ?x91)))
 (let (($x76 (and (distinct (_ bv0 32) ?x8) true)))
 (let (($x93 (and $x76 $x60 $x92)))
 (let (($x97 (or $x93 $x95 $x96)))
 (let (($x100 (not $x97)))
 (let (($x99 (and (distinct R ?x91) true)))
 (let (($x101 (and $x99 $x100)))
 (let (($x98 (and $x92 $x97)))
 (let (($x102 (or $x98 $x101)))
 (not $x102)))))))))))))))))))))
(check-sat)
